c 3 - XORSAT
p cnf 40 160
5 25 31 0
-5 -25 31 0
-5 25 -31 0
5 -25 -31 0
-7 -19 -20 0
-7 19 20 0
7 -19 20 0
7 19 -20 0
-2 -4 -37 0
-2 4 37 0
2 -4 37 0
2 4 -37 0
-22 -26 -27 0
-22 26 27 0
22 -26 27 0
22 26 -27 0
11 20 40 0
-11 -20 40 0
-11 20 -40 0
11 -20 -40 0
2 25 26 0
-2 -25 26 0
-2 25 -26 0
2 -25 -26 0
13 16 29 0
-13 -16 29 0
-13 16 -29 0
13 -16 -29 0
12 38 34 0
-12 -38 34 0
-12 38 -34 0
12 -38 -34 0
31 35 36 0
-31 -35 36 0
-31 35 -36 0
31 -35 -36 0
17 24 30 0
-17 -24 30 0
-17 24 -30 0
17 -24 -30 0
11 17 26 0
-11 -17 26 0
-11 17 -26 0
11 -17 -26 0
-22 -24 -40 0
-22 24 40 0
22 -24 40 0
22 24 -40 0
-27 -29 -32 0
-27 29 32 0
27 -29 32 0
27 29 -32 0
3 15 32 0
-3 -15 32 0
-3 15 -32 0
3 -15 -32 0
1 10 12 0
-1 -10 12 0
-1 10 -12 0
1 -10 -12 0
25 28 33 0
-25 -28 33 0
-25 28 -33 0
25 -28 -33 0
6 8 28 0
-6 -8 28 0
-6 8 -28 0
6 -8 -28 0
-6 -10 -15 0
-6 10 15 0
6 -10 15 0
6 10 -15 0
-8 -10 -11 0
-8 10 11 0
8 -10 11 0
8 10 -11 0
-22 -23 -30 0
-22 23 30 0
22 -23 30 0
22 23 -30 0
12 35 39 0
-12 -35 39 0
-12 35 -39 0
12 -35 -39 0
-1 -14 -27 0
-1 14 27 0
1 -14 27 0
1 14 -27 0
3 36 37 0
-3 -36 37 0
-3 36 -37 0
3 -36 -37 0
3 9 15 0
-3 -9 15 0
-3 9 -15 0
3 -9 -15 0
8 36 37 0
-8 -36 37 0
-8 36 -37 0
8 -36 -37 0
14 24 32 0
-14 -24 32 0
-14 24 -32 0
14 -24 -32 0
-19 -21 -33 0
-19 21 33 0
19 -21 33 0
19 21 -33 0
1 21 23 0
-1 -21 23 0
-1 21 -23 0
1 -21 -23 0
-16 -34 -38 0
-16 34 38 0
16 -34 38 0
16 34 -38 0
2 14 33 0
-2 -14 33 0
-2 14 -33 0
2 -14 -33 0
-39 -40 -38 0
-39 40 38 0
39 -40 38 0
39 40 -38 0
-28 -30 -35 0
-28 30 35 0
28 -30 35 0
28 30 -35 0
-13 -20 -29 0
-13 20 29 0
13 -20 29 0
13 20 -29 0
31 34 39 0
-31 -34 39 0
-31 34 -39 0
31 -34 -39 0
-4 -18 -23 0
-4 18 23 0
4 -18 23 0
4 18 -23 0
9 16 21 0
-9 -16 21 0
-9 16 -21 0
9 -16 -21 0
-17 -18 -19 0
-17 18 19 0
17 -18 19 0
17 18 -19 0
-5 -7 -9 0
-5 7 9 0
5 -7 9 0
5 7 -9 0
-6 -13 -18 0
-6 13 18 0
6 -13 18 0
6 13 -18 0
-4 -5 -7 0
-4 5 7 0
4 -5 7 0
4 5 -7 0
